; benchmark generated from python API
(set-info :status unknown)
(declare-fun S_4 () Real)
(declare-fun S_2 () Real)
(declare-fun C () Real)
(declare-fun S_5 () Real)
(declare-fun S_3 () Real)
(declare-fun S_0 () Real)
(declare-fun S_1 () Real)
(declare-fun A_0 () Real)
(declare-fun L_0 () Real)
(declare-fun L0 () Real)
(declare-fun A_5 () Real)
(declare-fun A_3 () Real)
(declare-fun B () Real)
(declare-fun A_1 () Real)
(declare-fun A_4 () Real)
(declare-fun L_2 () Real)
(declare-fun L_1 () Real)
(declare-fun A_2 () Real)
(assert
 (let (($x42 (>= L0 0.0)))
 (let (($x383 (>= C 5.0)))
 (let ((?x594 (* (- 1.0) A_5)))
 (let ((?x1271 (* (- 1.0) S_0)))
 (let ((?x649 (* (- 1.0) B)))
 (let ((?x4616 (* (- 4.0) C)))
 (let (($x16090 (<= (+ (* (- 1.0) C) ?x649 A_3 S_5 ?x594 (* (- 1.0) S_3)) 0.0)))
 (let (($x16003 (<= (+ (* (- 3.0) C) ?x649 (* (- 1.0) S_1) A_3 S_5 ?x594) 0.0)))
 (let (($x16049 (<= (+ L_0 ?x649 A_3 (* (- 2.0) C) S_5 (* (- 1.0) A_1) ?x594) 0.0)))
 (let (($x16008 (<= (+ L_0 (* (- 3.0) C) ?x649 A_3 S_5 ?x594 (* (- 1.0) A_0)) 0.0)))
 (let (($x16020 (<= (+ (* (- 2.0) C) ?x649 (* (- 1.0) S_2) A_3 S_5 ?x594) 0.0)))
 (let (($x1620 (<= (+ (* (- 1.0) L_0) (* (- 1.0) S_5) A_4) 0.0)))
 (let (($x1364 (not (= L_1 L_2))))
 (let (($x1014 (not (<= L_1 L_0))))
 (let (($x15965 (or $x1014 $x1364 $x1620 (<= (+ (* 3.0 C) S_1 (* (- 1.0) S_5)) 0.0))))
 (let (($x15188 (<= (+ (* 2.0 C) S_2 (* (- 1.0) S_5)) 0.0)))
 (let ((?x583 (* (- 1.0) L_2)))
 (let ((?x1005 (+ A_2 ?x583 ?x649)))
 (let (($x1033 (<= S_2 ?x1005)))
 (let (($x15181 (<= (+ (* 4.0 C) S_0 (* (- 1.0) S_5)) 0.0)))
 (let (($x14924 (<= (+ (* (- 1.0) L_0) (* 3.0 C) (* (- 1.0) S_5) A_1) 0.0)))
 (let (($x17239 (or (<= (+ A_3 (* (- 1.0) A_2) (* (- 1.0) C)) 0.0) $x14924 $x15181)))
 (let (($x14319 (<= (+ (* (- 1.0) L_0) (* (- 1.0) C) ?x649 (* (- 1.0) S_2) A_3) 0.0)))
 (let (($x15173 (<= (+ C (* (- 1.0) S_5) S_3) 0.0)))
 (let (($x2858 (not (= L_0 L_2))))
 (let (($x14015 (<= (+ A_4 (* (- 1.0) A_3) (* (- 1.0) C)) 0.0)))
 (let (($x14882 (<= 0.0 (+ L_0 C (* (- 1.0) A_1) S_0))))
 (let (($x14889 (not $x14882)))
 (let (($x23193 (or $x14889 (<= (+ (* (- 1.0) L_0) C A_1 (* (- 1.0) S_3)) 0.0))))
 (let (($x14893 (<= (+ (* (- 1.0) L_0) (* 2.0 C) A_1 (* (- 1.0) S_4)) 0.0)))
 (let (($x23493 (or (<= (+ A_1 (* (- 1.0) L_0) (* (- 1.0) S_2)) 0.0) (<= (+ C (* (- 1.0) S_2) S_0) 0.0))))
 (let ((?x316 (* 2.0 C)))
 (let ((?x443 (+ A_2 ?x583 ?x649 ?x316)))
 (let (($x544 (>= S_5 ?x443)))
 (let (($x59 (= L_1 L_0)))
 (let (($x23973 (or $x59 (<= S_5 (+ A_5 (* (- 1.0) A_3) A_1 (* (- 1.0) L_1) ?x316)))))
 (let ((?x880 (* 3.0 C)))
 (let ((?x573 (* (- 1.0) L_1)))
 (let ((?x14056 (+ A_1 ?x573 ?x649 ?x880)))
 (let (($x14443 (>= S_5 ?x14056)))
 (let (($x23135 (or $x1364 (<= (+ A_3 (* (- 1.0) A_1) (* (- 2.0) C)) 0.0) $x14443)))
 (let (($x14445 (or $x59 $x1364 (<= (+ A_2 (* (- 1.0) A_1) (* (- 1.0) C)) 0.0))))
 (let ((?x373 (* (- 1.0) C)))
 (let ((?x14383 (+ ?x649 ?x583 A_2 ?x373)))
 (let (($x14401 (<= (+ A_1 (* (- 1.0) L_0)) ?x14383)))
 (let (($x23258 (or (= (+ ?x373 A_2 ?x583 ?x649 (* (- 1.0) A_1) L_0) 0.0) (not $x14401))))
 (let (($x69 (= L_2 L_1)))
 (let (($x14414 (or $x69 $x1014 (<= (+ A_1 (* (- 1.0) L_0) L_2 (* (- 1.0) A_2) C) 0.0))))
 (let (($x1888 (not (= L_0 L_1))))
 (let (($x1015 (<= L_2 L_1)))
 (let (($x140 (>= S_4 S_3)))
 (let (($x143 (>= S_5 S_4)))
 (let (($x41 (>= L_0 L0)))
 (let (($x131 (>= S_1 S_0)))
 (let (($x134 (>= S_2 S_1)))
 (let (($x137 (>= S_3 S_2)))
 (let (($x145 (>= A_1 A_0)))
 (let (($x147 (>= A_3 A_2)))
 (let (($x148 (>= A_4 A_3)))
 (let (($x149 (>= A_5 A_4)))
 (and (<= (+ A_1 ?x573) S_4) (not (<= (+ A_2 ?x583) S_4)) $x149 $x148 $x147 $x145 $x137 $x134 $x131 $x41 $x143 $x140 (or $x69 (not $x1015)) (or $x59 (<= S_1 (+ A_1 ?x573 ?x649))) (or $x59 $x1014) (>= S_3 ?x1005) (>= S_2 (+ A_1 ?x573 ?x649)) (or $x59 $x69 (= (+ A_2 ?x583) (+ A_1 ?x573 C))) (>= S_1 (+ ?x649 ?x573 A_1 ?x373)) (or $x59 (<= S_0 (+ ?x649 ?x573 A_1 ?x373))) (or $x1364 (>= S_4 (+ A_2 ?x573 ?x649 C))) (or (<= A_4 (+ A_2 ?x649 ?x316)) $x544) (or $x69 (<= S_3 (+ A_2 ?x583 ?x649 C))) (<= (+ ?x649 ?x573 A_1 ?x373) (+ A_0 (* (- 1.0) L_0))) (or $x1015 (<= S_4 ?x443)) (or $x59 (<= S_3 (+ A_1 ?x573 ?x649 ?x316))) (or $x59 (<= S_4 ?x14056)) (>= S_0 (+ ?x649 ?x573 A_1 (* (- 2.0) C))) (>= S_4 (+ A_2 ?x583 ?x649 C)) (or $x69 $x1033) (or $x69 (<= S_5 (+ A_2 ?x583 ?x649 ?x880))) (or $x59 (<= S_2 (+ A_1 ?x573 ?x649 C))) (<= (+ L_0 ?x373 S_5 (* (- 1.0) A_4)) 0.0) (or $x1015 (<= S_5 (+ A_5 (* (- 1.0) A_3) A_2 ?x583 C))) (or $x69 (<= S_1 ?x14383)) (>= S_2 ?x14383) (or $x69 (<= S_0 (+ ?x649 ?x583 A_2 (* (- 2.0) C))) $x14401) (<= (+ ?x649 ?x583 A_2 (* (- 2.0) C)) (+ A_0 (* (- 1.0) L_0))) (or $x1888 (>= S_4 (+ A_1 (* (- 1.0) L_0) ?x649 ?x316))) $x14414 (>= S_0 (+ ?x649 ?x583 A_2 (* (- 3.0) C))) (>= S_1 (+ ?x649 ?x583 A_2 (* (- 2.0) C))) (<= (+ (* (- 1.0) A_1) L_0 S_1) 0.0) $x23258 (>= S_4 (+ A_1 ?x573 ?x649 ?x316)) (>= S_3 (+ A_1 ?x573 ?x649 C)) (or $x14015 $x14443) $x14445 (or $x59 (<= S_5 (+ A_1 ?x573 ?x649 (* 4.0 C)))) (<= S_5 (+ A_4 ?x583 C)) (or (<= (+ A_4 (* (- 1.0) A_2) (* (- 2.0) C)) 0.0) $x14443) $x23135 (or $x1364 (>= S_5 (+ A_4 ?x573)) $x14443) $x23973 (<= S_5 (+ A_5 ?x573)) (<= S_5 (+ A_5 ?x583)) (or $x544 (>= S_5 (+ A_4 ?x583))) (<= (+ L_0 (* (- 2.0) C) S_2 (* (- 1.0) A_0)) 0.0) $x23493 (<= (+ L_0 ?x373 S_1 (* (- 1.0) A_0)) 0.0) (<= (+ L_0 (* (- 3.0) C) S_3 (* (- 1.0) A_0)) 0.0) (<= (+ (* (- 3.0) C) (* (- 1.0) S_1) S_3) 0.0) (or (<= (+ ?x880 S_0 (* (- 1.0) S_4)) 0.0) $x14882) (or $x14889 $x14893) $x23193 (<= (+ (* (- 5.0) C) ?x1271 S_4) 0.0) (<= (+ (* (- 6.0) C) ?x1271 S_5) 0.0) (or $x14015 $x15188) (<= (+ L_0 S_2 ?x373 (* (- 1.0) A_1)) 0.0) (or $x14015 $x15173) (<= (+ L_0 (* (- 2.0) C) (* (- 1.0) A_1) S_3) 0.0) (or (<= (+ ?x316 S_0 (* (- 1.0) S_3)) 0.0) $x14882) (<= (+ (* (- 2.0) C) S_2 (* (- 1.0) S_1)) 0.0) (<= (+ (* (- 2.0) C) S_1 ?x1271) 0.0) (or $x14015 $x14924 $x15181) (<= (+ L_0 ?x4616 S_5 (* (- 1.0) A_1)) 0.0) (<= (+ (* (- 5.0) C) (* (- 1.0) S_1) S_5) 0.0) (<= (+ L_0 (* (- 5.0) C) S_5 (* (- 1.0) A_0)) 0.0) (or $x1620 $x2858 $x15173) (<= (+ L_0 (* (- 3.0) C) (* (- 1.0) A_1) S_4) 0.0) (<= (+ ?x4616 (* (- 1.0) S_1) S_4) 0.0) (<= (+ L_0 ?x4616 S_4 (* (- 1.0) A_0)) 0.0) (or (<= (+ A_4 (* (- 1.0) A_2) (* (- 2.0) C)) 0.0) $x15188) (or $x1014 $x1033 $x14319 $x15188) $x17239 (or $x1014 $x1364 $x1620 $x14924 $x15181) (or $x1014 $x1033 $x1620 $x15188) $x15965 $x16020 $x16008 $x16049 $x16003 (<= (+ ?x649 A_3 S_5 ?x594 (* (- 1.0) S_4)) 0.0) $x16090 (<= (+ ?x4616 ?x649 A_3 ?x1271 S_5 ?x594) 0.0) $x383 $x42 (<= (+ C S_2 (* (- 1.0) S_4)) 0.0) (<= (+ L_0 S_0 (* (- 1.0) A_0)) 0.0) (<= (+ ?x316 S_1 (* (- 1.0) S_4)) 0.0) (<= (+ (* (- 2.0) C) (* (- 1.0) S_2) S_3) 0.0) (<= (+ C S_1 (* (- 1.0) S_3)) 0.0) (<= (+ (* (- 3.0) C) S_2 ?x1271) 0.0) (<= (+ ?x4616 ?x1271 S_3) 0.0) (<= (+ (* (- 2.0) C) S_5 (* (- 1.0) S_4)) 0.0) (<= (+ (* (- 2.0) C) (* (- 1.0) S_3) S_4) 0.0) (<= (+ (* (- 3.0) C) S_5 (* (- 1.0) S_3)) 0.0) (<= (+ ?x4616 (* (- 1.0) S_2) S_5) 0.0) (<= (+ (* (- 3.0) C) (* (- 1.0) S_2) S_4) 0.0)))))))))))))))))))))))))))))))))))))))))))))))))))))))))))))))
(check-sat)
